/* Objective function */
min: +C1 +C2 +C3 +C4;

/* Constraints */
+2.66632297516 C1 +2.72893024184 C2 +2.72893024184 C3 +2.72893024184 C4 >= 4.54820970968;
+2.72893024184 C1 +2.69741409998 C2 +2.69741409998 C3 +2.69741409998 C4 >= 1.20318802446;
+2.72893024184 C1 +2.69741409998 C2 +2.60093923489 C3 +2.60093923489 C4 >= 0;
+2.72893024184 C1 +2.69741409998 C2 +2.60093923489 C3 +2.37381845913 C4 >= 0;

/* Variable bounds */
C1 <= 0.5;
C2 <= 0.5;
C3 <= 0.5;
C4 <= 0.5;
